WARNING: for repeatability, setting FPU to use double precision
============================[ Problem Statistics ]=============================
|                                                                             |
|  Number of variables:          3328                                         |
|  Number of clauses:           10944                                         |
|  Parse time:                   0.00 s                                       |
|                                                                             |
c ============================[ Search Statistics ]==============================
c | Conflicts |          ORIGINAL         |          LEARNT          | Progress |
c |           |    Vars  Clauses Literals |    Limit  Clauses Lit/Cl |          |
c ===============================================================================
c Switched to VSIDS.
c Switched to LRB.
c Switched to VSIDS.
c Switched to LRB.
c Switched to VSIDS.
c Switched to LRB.
c Switched to VSIDS.
c Switched to LRB.
c Switched to VSIDS.
c Switched to LRB.
c Switched to VSIDS.
c Switched to LRB.
c Switched to VSIDS.
c Switched to LRB.
c Switched to VSIDS.
c Switched to LRB.
c Switched to VSIDS.
c Switched to LRB.
c Switched to VSIDS.
c Switched to LRB.
c Switched to VSIDS.
c Switched to LRB.
c Switched to VSIDS.
c Switched to LRB.
c Switched to VSIDS.
c Switched to LRB.
c Switched to VSIDS.
c Switched to LRB.
c ===============================================================================
restarts                  : 4190
conflicts                 : 5388465        (1509 /sec)
decisions                 : 6057185        (0.00 % random) (1696 /sec)
propagations              : 4974693840     (1393295 /sec)
conflict literals         : 294929415      (64.48 % deleted)

conflicts w/ DIP found    : 3136599        (58.21 % of conflicts)
conflicts w/ dangerous DIP: 0              (0.00 % of conflicts)
conflicts w/ DIP-learning : 17948          (0.33 % of conflicts)
decisions on ext vars     : 2727           (0.05 % of decisions)
total ext vars            : 10764       
tried delete ext vars     : 10196       
deleted ext vars          : 10196       
max ext vars              : 1482        

Memory used               : 109.00 MB
CPU time                  : 3570.45 s
DIP computation time      : 206.844 s (5.79 % of total time)
ER_sel time               : 6.02532 s
ER_add time               : 0.038256 s
ER_delC time              : 0 s
ER_delV time              : 0.533212 s
ER_sub time               : 7.52122 s
ER_stat time              : 0 s

INDETERMINATE
